12 48 6 10
8 16 19 19 3 7 18 19 16 14 6 11 1 18 19 14 5 15 5 18 9 7 4 9 11 12 12 9 8 8 8 7 16 5 1 4 13 8 6 16 4 1 6 8 7 13 16 3 
8.36 13.52 5.74 3.21 9.81 5.58 5.58 3.37 6.27 1.62 11.03 6.34 7.57 12.03 5.63 7.01 15.69 6.08 9.43 10.89 4.38 0.9 5.16 8.13 9.25 11.46 2.19 7.2 12.16 12.6 15.52 1.75 13.27 13.2 14.01 5.77 4.44 4.93 11.27 5.38 2.68 5.96 13.68 2.13 2.07 7.94 13.48 0.43 
4.34 0.62 15.06 15.11 0.49 2.74 14.44 6.37 13.98 9.14 4.5 0.57 13.89 15.96 12.56 8.23 14.11 6.46 7.59 14.73 3.78 12.62 4.16 12.98 7.86 11.95 4.02 15.87 6.03 7.54 2.11 6.54 4.08 5.71 3.75 8.13 6.63 11.51 10.63 7.79 0.2 5.08 14.03 0.2 15.91 2.8 14.26 3.04 
13.58 14.21 0.47 7.21 8.26 10.14 3.76 1.46 5 5.79 15.22 2.53 7.82 3.75 8.64 2.05 11.24 5.94 5.4 3.15 5.2 15.63 12.43 9.14 6.64 5.58 10.62 6.81 9.62 10.77 15.07 7.55 5.61 15.89 10.12 4.48 10.34 7.77 10.33 6.72 13.44 0.71 3.74 7 13.63 2.68 4.78 4.7 
8.5 0.55 10.82 11.36 4.19 5.18 12.09 5.57 6.8 6.84 13.58 15.32 8.37 5.64 14.23 2.86 9.78 12.33 4.25 8.53 5.15 0.68 5.28 0 1.3 7.42 10.53 2.71 1.97 7.74 2.36 1.25 15.38 12.92 9.26 1.95 10.41 1.91 15.21 15.16 8.45 13.97 2.95 6.41 5.43 5.66 8.97 13.4 
13.06 11.26 6.3 7.75 1.27 15.94 4.41 5.69 12.28 13.46 10.6 2.35 4.61 12.91 13.77 12.55 10.44 10.43 13.84 15.91 15.07 1.45 7.98 15.29 4.5 11.43 13.66 12.08 13.7 10.42 13.19 15.41 12.14 11.22 14.33 12.5 8.01 8.82 0.12 4.11 11.03 6.67 3.33 7.45 12.68 7.71 4.6 1.43 
4.68 11.85 8.49 12.79 11.62 9.02 11.12 11.83 9.57 0.14 12.9 6.73 12.33 14.44 4.41 5.19 1.1 13.34 13.06 13.98 12.4 12.92 0.28 2.38 14.78 6.77 2.93 10.89 3.11 12.32 3.64 11 1.19 9.64 14.18 10.6 7.7 6.28 7.92 15.64 8.7 15.77 8.78 15.55 11.9 7.96 6.47 11.07 
8 8 8 8 8 8 8 8 8 8 8 8 8 8 8 8 8 8 8 8 8 8 8 8 8 8 8 8 8 8 8 8 8 8 8 8 8 8 8 8 8 8 8 8 8 8 8 8 
9.89 14.98 7.37 0.21 5.08 12.77 6.38 11.61 0.08 9.11 12.84 2.29 8.85 12.56 13.34 5.48 11 3.49 2.4 11.54 10.27 7.8 9.52 0.58 3.1 7.62 3.38 14.27 1.34 1.98 1.27 13.16 4.19 9.97 15.46 10.1 9.82 5.61 7.74 10.49 3.61 7.8 14.48 10.49 0.11 2.4 14.66 15.89 
2.71 15.34 13.08 3.65 8.19 15.32 14.33 0.55 1.86 13.99 7.48 10.66 0.31 13.33 13.98 3.46 11.91 14.96 14.26 5.3 12.97 0.61 2.11 10.33 5.17 5.53 1.74 14.14 4.04 3.69 3.22 4.52 5.61 9.14 4.67 6.42 14.59 10.88 5.49 8.94 12.02 3.43 4.23 12.55 13.22 10.86 5.63 8.86 
4.58 10.55 2.94 7.82 9.83 3.53 12.8 9.7 8.47 6.4 1.28 5.48 16 13.85 3.61 13.3 6.64 1.7 13.09 9.3 7.26 13 3.11 4.39 4.02 11.82 8.25 9.06 13.32 0.3 9.9 11.05 12.09 14.68 5.55 15.91 14.5 9.32 4.45 0.79 7.9 3.9 11.86 8.47 11.57 14.94 3.9 14.57 
2.25 0.66 5.4 8.54 6.54 1.24 8.91 13.23 8.9 15.75 8.18 14.64 10.51 11.08 13.23 15.77 13.58 13.75 13.17 10.57 13.75 6.12 6.17 4.89 8.47 1.57 6.12 9.47 3 15.05 9.55 13.97 3.31 7.38 14.15 3.38 13.19 7.68 2.58 2.8 9.26 15.75 0.16 1.31 8.9 6.85 8.3 6.4 
13.21 12.23 10.01 8.1 7.05 3.37 1.05 9.93 12.11 1.99 2.35 8.26 3.4 8.95 6.33 5.16 9.81 3.35 0.75 2.37 2.89 14.06 11.15 0.25 10.9 10.47 14.95 9.29 11.23 8.53 9.04 13.84 7.26 1.04 0.58 15.09 10.73 10.24 8.91 15.15 0.59 10.7 12.33 5.33 11.55 13.01 7.46 6.17 
1 1 1 1 1 1 1 1 1 1 1 1 1 1 1 1 1 1 1 1 1 1 1 1 1 1 1 1 1 1 1 1 1 1 1 1 1 1 1 1 1 1 1 1 1 1 1 1 
1 1 1 1 1 1 1 1 1 1 1 1 1 1 1 1 1 1 1 1 1 1 1 1 1 1 1 1 1 1 1 1 1 1 1 1 1 1 1 1 1 1 1 1 1 1 1 1 
1 1 1 1 1 1 1 1 1 1 1 1 1 1 1 1 1 1 1 1 1 1 1 1 1 1 1 1 1 1 1 1 1 1 1 1 1 1 1 1 1 1 1 1 1 1 1 1 
1 1 1 1 1 1 1 1 1 1 1 1 1 1 1 1 1 1 1 1 1 1 1 1 1 1 1 1 1 1 1 1 1 1 1 1 1 1 1 1 1 1 1 1 1 1 1 1 
1 1 1 1 1 1 1 1 1 1 1 1 1 1 1 1 1 1 1 1 1 1 1 1 1 1 1 1 1 1 1 1 1 1 1 1 1 1 1 1 1 1 1 1 1 1 1 1 
1 1 1 1 1 1 1 1 1 1 1 1 1 1 1 1 1 1 1 1 1 1 1 1 1 1 1 1 1 1 1 1 1 1 1 1 1 1 1 1 1 1 1 1 1 1 1 1 
1 1 1 1 1 1 1 1 1 1 1 1 1 1 1 1 1 1 1 1 1 1 1 1 1 1 1 1 1 1 1 1 1 1 1 1 1 1 1 1 1 1 1 1 1 1 1 1 
1 1 1 1 1 1 1 1 1 1 1 1 1 1 1 1 1 1 1 1 1 1 1 1 1 1 1 1 1 1 1 1 1 1 1 1 1 1 1 1 1 1 1 1 1 1 1 1 
1 1 1 1 1 1 1 1 1 1 1 1 1 1 1 1 1 1 1 1 1 1 1 1 1 1 1 1 1 1 1 1 1 1 1 1 1 1 1 1 1 1 1 1 1 1 1 1 
1 1 1 1 1 1 1 1 1 1 1 1 1 1 1 1 1 1 1 1 1 1 1 1 1 1 1 1 1 1 1 1 1 1 1 1 1 1 1 1 1 1 1 1 1 1 1 1 
1 1 1 1 1 1 1 1 1 1 1 1 1 1 1 1 1 1 1 1 1 1 1 1 1 1 1 1 1 1 1 1 1 1 1 1 1 1 1 1 1 1 1 1 1 1 1 1 
1 1 1 1 1 1 1 1 1 1 1 1 1 1 1 1 1 1 1 1 1 1 1 1 1 1 1 1 1 1 1 1 1 1 1 1 1 1 1 1 1 1 1 1 1 1 1 1 
0.01 0.01 0.01 0.01 0.01 0.01 0.01 0.01 0.01 0.01 0.01 0.01 0.01 0.01 0.01 0.01 0.01 0.01 0.01 0.01 0.01 0.01 0.01 0.01 0.01 0.01 0.01 0.01 0.01 0.01 0.01 0.01 0.01 0.01 0.01 0.01 0.01 0.01 0.01 0.01 0.01 0.01 0.01 0.01 0.01 0.01 0.01 0.01 
0.02 0.02 0.02 0.02 0.02 0.02 0.02 0.02 0.02 0.02 0.02 0.02 0.02 0.02 0.02 0.02 0.02 0.02 0.02 0.02 0.02 0.02 0.02 0.02 0.02 0.02 0.02 0.02 0.02 0.02 0.02 0.02 0.02 0.02 0.02 0.02 0.02 0.02 0.02 0.02 0.02 0.02 0.02 0.02 0.02 0.02 0.02 0.02 
0.03 0.03 0.03 0.03 0.03 0.03 0.03 0.03 0.03 0.03 0.03 0.03 0.03 0.03 0.03 0.03 0.03 0.03 0.03 0.03 0.03 0.03 0.03 0.03 0.03 0.03 0.03 0.03 0.03 0.03 0.03 0.03 0.03 0.03 0.03 0.03 0.03 0.03 0.03 0.03 0.03 0.03 0.03 0.03 0.03 0.03 0.03 0.03 
0.04 0.04 0.04 0.04 0.04 0.04 0.04 0.04 0.04 0.04 0.04 0.04 0.04 0.04 0.04 0.04 0.04 0.04 0.04 0.04 0.04 0.04 0.04 0.04 0.04 0.04 0.04 0.04 0.04 0.04 0.04 0.04 0.04 0.04 0.04 0.04 0.04 0.04 0.04 0.04 0.04 0.04 0.04 0.04 0.04 0.04 0.04 0.04 
0.05 0.05 0.05 0.05 0.05 0.05 0.05 0.05 0.05 0.05 0.05 0.05 0.05 0.05 0.05 0.05 0.05 0.05 0.05 0.05 0.05 0.05 0.05 0.05 0.05 0.05 0.05 0.05 0.05 0.05 0.05 0.05 0.05 0.05 0.05 0.05 0.05 0.05 0.05 0.05 0.05 0.05 0.05 0.05 0.05 0.05 0.05 0.05 
0.06 0.06 0.06 0.06 0.06 0.06 0.06 0.06 0.06 0.06 0.06 0.06 0.06 0.06 0.06 0.06 0.06 0.06 0.06 0.06 0.06 0.06 0.06 0.06 0.06 0.06 0.06 0.06 0.06 0.06 0.06 0.06 0.06 0.06 0.06 0.06 0.06 0.06 0.06 0.06 0.06 0.06 0.06 0.06 0.06 0.06 0.06 0.06 
0.07 0.07 0.07 0.07 0.07 0.07 0.07 0.07 0.07 0.07 0.07 0.07 0.07 0.07 0.07 0.07 0.07 0.07 0.07 0.07 0.07 0.07 0.07 0.07 0.07 0.07 0.07 0.07 0.07 0.07 0.07 0.07 0.07 0.07 0.07 0.07 0.07 0.07 0.07 0.07 0.07 0.07 0.07 0.07 0.07 0.07 0.07 0.07 
0.2 0.2 0.2 0.2 0.2 0.2 0.2 0.2 0.2 0.2 0.2 0.2 0.2 0.2 0.2 0.2 0.2 0.2 0.2 0.2 0.2 0.2 0.2 0.2 0.2 0.2 0.2 0.2 0.2 0.2 0.2 0.2 0.2 0.2 0.2 0.2 0.2 0.2 0.2 0.2 0.2 0.2 0.2 0.2 0.2 0.2 0.2 0.2 
0.4 0.4 0.4 0.4 0.4 0.4 0.4 0.4 0.4 0.4 0.4 0.4 0.4 0.4 0.4 0.4 0.4 0.4 0.4 0.4 0.4 0.4 0.4 0.4 0.4 0.4 0.4 0.4 0.4 0.4 0.4 0.4 0.4 0.4 0.4 0.4 0.4 0.4 0.4 0.4 0.4 0.4 0.4 0.4 0.4 0.4 0.4 0.4 
0.6 0.6 0.6 0.6 0.6 0.6 0.6 0.6 0.6 0.6 0.6 0.6 0.6 0.6 0.6 0.6 0.6 0.6 0.6 0.6 0.6 0.6 0.6 0.6 0.6 0.6 0.6 0.6 0.6 0.6 0.6 0.6 0.6 0.6 0.6 0.6 0.6 0.6 0.6 0.6 0.6 0.6 0.6 0.6 0.6 0.6 0.6 0.6 
0.8 0.8 0.8 0.8 0.8 0.8 0.8 0.8 0.8 0.8 0.8 0.8 0.8 0.8 0.8 0.8 0.8 0.8 0.8 0.8 0.8 0.8 0.8 0.8 0.8 0.8 0.8 0.8 0.8 0.8 0.8 0.8 0.8 0.8 0.8 0.8 0.8 0.8 0.8 0.8 0.8 0.8 0.8 0.8 0.8 0.8 0.8 0.8 
1 1 1 1 1 1 1 1 1 1 1 1 1 1 1 1 1 1 1 1 1 1 1 1 1 1 1 1 1 1 1 1 1 1 1 1 1 1 1 1 1 1 1 1 1 1 1 1 
